2 -1 10 5 6 9 -1 5 1 -1 
9 -1 0 1 2 8 4 2 10 -1 
6 10 1 5 8 5 4 3 3 -1 
1 8 -1 0 0 8 8 4 9 -1 
0 7 8 10 9 0 -1 0 10 -1 
5 8 1 7 1 -1 8 -1 -1 -1 
-1 10 10 6 5 2 0 6 10 -1 
5 7 7 3 1 -1 4 9 3 -1 
2 10 6 0 7 1 7 7 2 -1 
2 8 9 0 1 1 0 0 7 -1 
4 6 7 -1 1 4 1 6 8 -1 
0 6 3 6 7 0 6 9 0 -1 
1 7 0 2 8 -1 10 0 5 -1 
6 -1 0 2 4 4 6 2 1 -1 
10 3 -1 9 0 0 8 8 2 -1 
10 1 7 0 -1 1 9 10 -1 -1 
0 4 3 5 -1 5 1 1 7 -1 
0 10 7 0 9 -1 2 6 10 -1 
9 6 10 9 -1 5 10 1 -1 -1 
3 9 -1 6 9 9 8 9 7 -1 
4 3 5 4 3 -1 10 7 9 -1 
10 10 0 -1 9 10 0 2 2 -1 
-1 1 8 8 5 10 6 8 5 -1 
2 10 8 3 4 4 10 8 10 -1 
8 2 8 4 10 2 10 5 2 -1 
10 3 8 8 6 5 -1 7 5 -1 
3 5 7 7 -1 2 -1 5 1 -1 
6 7 6 1 -1 -1 7 2 3 -1 
0 0 9 -1 4 7 -1 -1 5 -1 
8 8 6 2 5 10 2 4 -1 -1 
9 9 8 4 0 -1 3 2 8 -1 
-1 -1 1 4 7 10 -1 8 1 -1 
8 9 2 -1 4 3 4 4 4 -1 
7 4 0 3 6 0 8 7 -1 -1 
-1 3 6 7 6 -1 8 8 3 -1 
4 5 7 6 9 5 5 9 8 -1 
10 -1 4 9 9 5 8 0 9 -1 
5 7 0 8 3 6 -1 10 10 -1 
4 9 0 10 4 1 2 -1 0 -1 
4 0 4 1 4 0 8 2 5 -1 
5 10 9 8 7 1 -1 1 1 -1 
6 1 4 1 6 -1 6 2 2 -1 
1 4 0 8 2 5 1 6 1 -1 
7 -1 1 4 3 2 10 0 1 -1 
5 10 7 7 6 8 4 -1 0 -1 
2 5 5 0 10 2 9 2 9 -1 
6 9 5 2 6 -1 2 6 0 -1 
0 4 5 8 8 4 1 7 7 -1 
9 6 5 1 8 -1 10 9 9 -1 
4 2 1 2 6 0 5 6 2 -1 
